(set-option :print-success false)
(set-info :smt-lib-version 2.6)
(set-option :auto_config false)
(set-option :type_check true)
(set-option :smt.case_split 3)
(set-option :smt.qi.eager_threshold 100)
(set-option :smt.delay_units true)
(set-option :smt.arith.solver 2)
(set-option :smt.mbqi false)
(set-option :model.compact false)
(set-option :model.v2 true)
(set-option :pp.bv_literals false)
(set-option :smt.arith.solver 2)

(declare-sort DateTime 0)
(declare-fun datetime_to_str (DateTime) String)
(declare-const f3 DateTime)
(declare-const end DateTime)
(declare-fun my_const () String)
(declare-fun $Is (String) Bool)
(declare-fun $IsB (Bool) Bool)
(assert (= my_const (datetime_to_str end)))
(assert (forall ((i DateTime)) (! (= (= (datetime_to_str end) (datetime_to_str i)) (= f3 i)) :pattern ((datetime_to_str i)))))
(assert (not (= f3 end)))
(check-sat)